
Gurobi 8.1.0 (mac64, Python) logging started Tue Feb  5 05:14:23 2019

Academic license - for non-commercial use only

Gurobi 8.1.0 (mac64, Python) logging started Tue Feb  5 05:20:55 2019

Academic license - for non-commercial use only

Gurobi 8.1.0 (mac64, Python) logging started Tue Feb  5 05:21:57 2019

Academic license - for non-commercial use only

Gurobi 8.1.0 (mac64, Python) logging started Tue Feb  5 05:22:08 2019

Academic license - for non-commercial use only

Gurobi 8.1.0 (mac64, Python) logging started Tue Feb  5 05:31:07 2019

Academic license - for non-commercial use only
Optimize a model with 213 rows, 125 columns and 526 nonzeros
Variable types: 67 continuous, 58 integer (58 binary)
Coefficient statistics:
  Matrix range     [1e-01, 1e+02]
  Objective range  [1e+00, 2e+00]
  Bounds range     [1e+00, 1e+00]
  RHS range        [1e+00, 1e+03]
Presolve removed 3 rows and 0 columns
Presolve time: 0.00s

Explored 0 nodes (0 simplex iterations) in 0.00 seconds
Thread count was 1 (of 8 available processors)

Solution count 0

Model is infeasible
Best objective -, best bound -, gap -

Gurobi 8.1.0 (mac64, Python) logging started Tue Feb  5 05:33:58 2019

Academic license - for non-commercial use only
Optimize a model with 213 rows, 125 columns and 526 nonzeros
Variable types: 67 continuous, 58 integer (58 binary)
Coefficient statistics:
  Matrix range     [1e-01, 1e+02]
  Objective range  [1e+00, 2e+00]
  Bounds range     [1e+00, 1e+00]
  RHS range        [1e+00, 1e+03]
Presolve removed 3 rows and 0 columns
Presolve time: 0.00s

Explored 0 nodes (0 simplex iterations) in 0.00 seconds
Thread count was 1 (of 8 available processors)

Solution count 0

Model is infeasible
Best objective -, best bound -, gap -

Gurobi 8.1.0 (mac64, Python) logging started Tue Feb  5 05:36:54 2019

Academic license - for non-commercial use only
Optimize a model with 213 rows, 125 columns and 526 nonzeros
Variable types: 67 continuous, 58 integer (58 binary)
Coefficient statistics:
  Matrix range     [1e-01, 1e+02]
  Objective range  [1e+00, 2e+00]
  Bounds range     [1e+00, 1e+00]
  RHS range        [1e+00, 1e+03]
Presolve removed 3 rows and 0 columns
Presolve time: 0.00s

Explored 0 nodes (0 simplex iterations) in 0.00 seconds
Thread count was 1 (of 8 available processors)

Solution count 0

Model is infeasible
Best objective -, best bound -, gap -

Gurobi 8.1.0 (mac64, Python) logging started Tue Feb  5 05:38:01 2019

Academic license - for non-commercial use only
Optimize a model with 213 rows, 125 columns and 526 nonzeros
Variable types: 67 continuous, 58 integer (58 binary)
Coefficient statistics:
  Matrix range     [1e-01, 1e+02]
  Objective range  [1e+00, 2e+00]
  Bounds range     [1e+00, 1e+00]
  RHS range        [1e+00, 1e+03]
Presolve removed 3 rows and 0 columns
Presolve time: 0.00s

Explored 0 nodes (0 simplex iterations) in 0.00 seconds
Thread count was 1 (of 8 available processors)

Solution count 0

Model is infeasible
Best objective -, best bound -, gap -

Gurobi 8.1.0 (mac64, Python) logging started Tue Feb  5 05:40:06 2019

Academic license - for non-commercial use only
Optimize a model with 213 rows, 125 columns and 526 nonzeros
Variable types: 67 continuous, 58 integer (58 binary)
Coefficient statistics:
  Matrix range     [1e-01, 1e+02]
  Objective range  [1e+00, 2e+00]
  Bounds range     [1e+00, 1e+00]
  RHS range        [1e+00, 1e+03]
Presolve removed 3 rows and 0 columns
Presolve time: 0.00s

Explored 0 nodes (0 simplex iterations) in 0.00 seconds
Thread count was 1 (of 8 available processors)

Solution count 0

Model is infeasible
Best objective -, best bound -, gap -

Gurobi 8.1.0 (mac64, Python) logging started Tue Feb  5 05:59:42 2019

Academic license - for non-commercial use only
Optimize a model with 213 rows, 125 columns and 526 nonzeros
Variable types: 67 continuous, 58 integer (58 binary)
Coefficient statistics:
  Matrix range     [1e-01, 1e+02]
  Objective range  [1e+00, 2e+00]
  Bounds range     [1e+00, 1e+00]
  RHS range        [9e-01, 1e+02]
Found heuristic solution: objective 12.7729095
Presolve removed 70 rows and 48 columns
Presolve time: 0.01s
Presolved: 143 rows, 77 columns, 415 nonzeros
Variable types: 50 continuous, 27 integer (27 binary)

Root relaxation: objective 6.907755e+00, 48 iterations, 0.00 seconds

    Nodes    |    Current Node    |     Objective Bounds      |     Work
 Expl Unexpl |  Obj  Depth IntInf | Incumbent    BestBd   Gap | It/Node Time

     0     0    6.90776    0    1   12.77291    6.90776  45.9%     -    0s
H    0     0                       6.9077553    6.90776  0.00%     -    0s

Explored 1 nodes (48 simplex iterations) in 0.01 seconds
Thread count was 8 (of 8 available processors)

Solution count 2: 6.90776 12.7729 

Optimal solution found (tolerance 1.00e-04)
Best objective 6.907755278982e+00, best bound 6.907755278982e+00, gap 0.0000%
Optimize a model with 2509 rows, 1301 columns and 6828 nonzeros
Variable types: 651 continuous, 650 integer (650 binary)
Coefficient statistics:
  Matrix range     [1e-01, 1e+02]
  Objective range  [1e+00, 1e+00]
  Bounds range     [1e+00, 1e+00]
  RHS range        [1e-01, 1e+02]
Presolve removed 482 rows and 499 columns
Presolve time: 0.02s
Presolved: 2027 rows, 802 columns, 5895 nonzeros
Variable types: 309 continuous, 493 integer (493 binary)
Found heuristic solution: objective 0.6328084

Root relaxation: objective 9.661417e-01, 435 iterations, 0.00 seconds

    Nodes    |    Current Node    |     Objective Bounds      |     Work
 Expl Unexpl |  Obj  Depth IntInf | Incumbent    BestBd   Gap | It/Node Time

*    0     0               0       0.9661417    0.96614  0.00%     -    0s

Explored 0 nodes (435 simplex iterations) in 0.04 seconds
Thread count was 8 (of 8 available processors)

Solution count 2: 0.966142 0.632808 

Optimal solution found (tolerance 1.00e-04)
Best objective 9.661417476310e-01, best bound 9.661417476310e-01, gap 0.0000%

Gurobi 8.1.0 (mac64, Python) logging started Tue Feb  5 06:04:39 2019

Academic license - for non-commercial use only
Optimize a model with 213 rows, 125 columns and 526 nonzeros
Variable types: 67 continuous, 58 integer (58 binary)
Coefficient statistics:
  Matrix range     [1e-01, 1e+02]
  Objective range  [1e+00, 2e+00]
  Bounds range     [1e+00, 1e+00]
  RHS range        [1e+00, 1e+02]
Found heuristic solution: objective 12.7729095
Presolve removed 68 rows and 46 columns
Presolve time: 0.00s
Presolved: 145 rows, 79 columns, 421 nonzeros
Variable types: 50 continuous, 29 integer (29 binary)

Root relaxation: objective 6.907790e+00, 72 iterations, 0.00 seconds

    Nodes    |    Current Node    |     Objective Bounds      |     Work
 Expl Unexpl |  Obj  Depth IntInf | Incumbent    BestBd   Gap | It/Node Time

     0     0    6.90779    0    7   12.77291    6.90779  45.9%     -    0s
H    0     0                       6.9093834    6.90779  0.02%     -    0s
     0     0     cutoff    0         6.90938    6.90938  0.00%     -    0s

Explored 1 nodes (88 simplex iterations) in 0.01 seconds
Thread count was 8 (of 8 available processors)

Solution count 2: 6.90938 12.7729 

Optimal solution found (tolerance 1.00e-04)
Best objective 6.909383367431e+00, best bound 6.909383367431e+00, gap 0.0000%
Optimize a model with 2509 rows, 1301 columns and 6828 nonzeros
Variable types: 651 continuous, 650 integer (650 binary)
Coefficient statistics:
  Matrix range     [1e-01, 1e+02]
  Objective range  [1e+00, 1e+00]
  Bounds range     [1e+00, 1e+00]
  RHS range        [8e-02, 1e+02]
Found heuristic solution: objective 1.0256317
Presolve removed 482 rows and 499 columns
Presolve time: 0.01s
Presolved: 2027 rows, 802 columns, 5895 nonzeros
Variable types: 309 continuous, 493 integer (493 binary)

Root relaxation: objective 1.121288e+00, 434 iterations, 0.00 seconds

    Nodes    |    Current Node    |     Objective Bounds      |     Work
 Expl Unexpl |  Obj  Depth IntInf | Incumbent    BestBd   Gap | It/Node Time

     0     0    1.12129    0    4    1.02563    1.12129  9.33%     -    0s
H    0     0                       1.1212878    1.12129  0.00%     -    0s

Explored 1 nodes (434 simplex iterations) in 0.03 seconds
Thread count was 8 (of 8 available processors)

Solution count 2: 1.12129 1.02563 

Optimal solution found (tolerance 1.00e-04)
Best objective 1.121287793904e+00, best bound 1.121287793904e+00, gap 0.0000%

Gurobi 8.1.0 (mac64, Python) logging started Tue Feb  5 06:06:13 2019

Academic license - for non-commercial use only
Optimize a model with 213 rows, 125 columns and 526 nonzeros
Variable types: 67 continuous, 58 integer (58 binary)
Coefficient statistics:
  Matrix range     [1e-01, 1e+02]
  Objective range  [1e+00, 2e+00]
  Bounds range     [1e+00, 1e+00]
  RHS range        [1e+00, 1e+02]
Found heuristic solution: objective 12.7729095
Presolve removed 68 rows and 46 columns
Presolve time: 0.00s
Presolved: 145 rows, 79 columns, 421 nonzeros
Variable types: 50 continuous, 29 integer (29 binary)

Root relaxation: objective 6.907790e+00, 72 iterations, 0.00 seconds

    Nodes    |    Current Node    |     Objective Bounds      |     Work
 Expl Unexpl |  Obj  Depth IntInf | Incumbent    BestBd   Gap | It/Node Time

     0     0    6.90779    0    7   12.77291    6.90779  45.9%     -    0s
H    0     0                       6.9093834    6.90779  0.02%     -    0s
     0     0     cutoff    0         6.90938    6.90938  0.00%     -    0s

Explored 1 nodes (88 simplex iterations) in 0.01 seconds
Thread count was 8 (of 8 available processors)

Solution count 2: 6.90938 12.7729 

Optimal solution found (tolerance 1.00e-04)
Best objective 6.909383367431e+00, best bound 6.909383367431e+00, gap 0.0000%
Optimize a model with 2509 rows, 1301 columns and 6828 nonzeros
Variable types: 651 continuous, 650 integer (650 binary)
Coefficient statistics:
  Matrix range     [1e-01, 1e+02]
  Objective range  [1e+00, 1e+00]
  Bounds range     [1e+00, 1e+00]
  RHS range        [8e-02, 1e+02]
Found heuristic solution: objective 1.0256317
Presolve removed 482 rows and 499 columns
Presolve time: 0.01s
Presolved: 2027 rows, 802 columns, 5895 nonzeros
Variable types: 309 continuous, 493 integer (493 binary)

Root relaxation: objective 1.121288e+00, 434 iterations, 0.00 seconds

    Nodes    |    Current Node    |     Objective Bounds      |     Work
 Expl Unexpl |  Obj  Depth IntInf | Incumbent    BestBd   Gap | It/Node Time

     0     0    1.12129    0    4    1.02563    1.12129  9.33%     -    0s
H    0     0                       1.1212878    1.12129  0.00%     -    0s

Explored 1 nodes (434 simplex iterations) in 0.03 seconds
Thread count was 8 (of 8 available processors)

Solution count 2: 1.12129 1.02563 

Optimal solution found (tolerance 1.00e-04)
Best objective 1.121287793904e+00, best bound 1.121287793904e+00, gap 0.0000%

Gurobi 8.1.0 (mac64, Python) logging started Tue Feb  5 06:23:26 2019

Academic license - for non-commercial use only
Optimize a model with 213 rows, 125 columns and 526 nonzeros
Variable types: 67 continuous, 58 integer (58 binary)
Coefficient statistics:
  Matrix range     [1e-01, 1e+02]
  Objective range  [1e+00, 2e+00]
  Bounds range     [1e+00, 1e+00]
  RHS range        [1e+00, 1e+02]
Found heuristic solution: objective 12.7729095
Presolve removed 68 rows and 46 columns
Presolve time: 0.00s
Presolved: 145 rows, 79 columns, 421 nonzeros
Variable types: 50 continuous, 29 integer (29 binary)

Root relaxation: objective 6.907790e+00, 72 iterations, 0.00 seconds

    Nodes    |    Current Node    |     Objective Bounds      |     Work
 Expl Unexpl |  Obj  Depth IntInf | Incumbent    BestBd   Gap | It/Node Time

     0     0    6.90779    0    7   12.77291    6.90779  45.9%     -    0s
H    0     0                       6.9093834    6.90779  0.02%     -    0s
     0     0     cutoff    0         6.90938    6.90938  0.00%     -    0s

Explored 1 nodes (88 simplex iterations) in 0.01 seconds
Thread count was 8 (of 8 available processors)

Solution count 2: 6.90938 12.7729 

Optimal solution found (tolerance 1.00e-04)
Best objective 6.909383367431e+00, best bound 6.909383367431e+00, gap 0.0000%
Optimize a model with 2509 rows, 1301 columns and 6828 nonzeros
Variable types: 651 continuous, 650 integer (650 binary)
Coefficient statistics:
  Matrix range     [1e-01, 1e+02]
  Objective range  [1e+00, 1e+00]
  Bounds range     [1e+00, 1e+00]
  RHS range        [8e-02, 1e+02]
Found heuristic solution: objective 1.0256317
Presolve removed 482 rows and 499 columns
Presolve time: 0.01s
Presolved: 2027 rows, 802 columns, 5895 nonzeros
Variable types: 309 continuous, 493 integer (493 binary)

Root relaxation: objective 1.121288e+00, 434 iterations, 0.00 seconds

    Nodes    |    Current Node    |     Objective Bounds      |     Work
 Expl Unexpl |  Obj  Depth IntInf | Incumbent    BestBd   Gap | It/Node Time

     0     0    1.12129    0    4    1.02563    1.12129  9.33%     -    0s
H    0     0                       1.1212878    1.12129  0.00%     -    0s

Explored 1 nodes (434 simplex iterations) in 0.03 seconds
Thread count was 8 (of 8 available processors)

Solution count 2: 1.12129 1.02563 

Optimal solution found (tolerance 1.00e-04)
Best objective 1.121287793904e+00, best bound 1.121287793904e+00, gap 0.0000%

Gurobi 8.1.0 (mac64, Python) logging started Tue Feb 12 11:26:48 2019

Academic license - for non-commercial use only

Gurobi 8.1.0 (mac64, Python) logging started Tue Feb 12 11:28:29 2019

Academic license - for non-commercial use only

Gurobi 8.1.0 (mac64, Python) logging started Tue Feb 12 11:30:11 2019

Academic license - for non-commercial use only

Gurobi 8.1.0 (mac64, Python) logging started Tue Feb 12 11:31:21 2019

Academic license - for non-commercial use only

Gurobi 8.1.0 (mac64, Python) logging started Tue Feb 12 11:40:08 2019

Academic license - for non-commercial use only

Gurobi 8.1.0 (mac64, Python) logging started Fri Feb 22 20:08:44 2019

Academic license - for non-commercial use only
Optimize a model with 169 rows, 107 columns and 422 nonzeros
Variable types: 57 continuous, 50 integer (50 binary)
Coefficient statistics:
  Matrix range     [1e-01, 1e+02]
  Objective range  [1e+00, 2e+00]
  Bounds range     [1e+00, 1e+00]
  RHS range        [1e+00, 1e+02]
Found heuristic solution: objective 12.7077555
Presolve removed 50 rows and 36 columns
Presolve time: 0.01s
Presolved: 119 rows, 71 columns, 345 nonzeros
Variable types: 42 continuous, 29 integer (29 binary)

Root relaxation: objective 6.918512e+00, 46 iterations, 0.00 seconds

    Nodes    |    Current Node    |     Objective Bounds      |     Work
 Expl Unexpl |  Obj  Depth IntInf | Incumbent    BestBd   Gap | It/Node Time

     0     0    6.91851    0    8   12.70776    6.91851  45.6%     -    0s
H    0     0                       7.1836659    6.91851  3.69%     -    0s
H    0     0                       7.1103293    6.91851  2.70%     -    0s
H    0     0                       7.0577553    6.91851  1.97%     -    0s
     0     0     cutoff    0         7.05776    7.05776  0.00%     -    0s

Cutting planes:
  Gomory: 3
  Implied bound: 1
  MIR: 3

Explored 1 nodes (67 simplex iterations) in 0.03 seconds
Thread count was 8 (of 8 available processors)

Solution count 4: 7.05776 7.11033 7.18367 12.7078 

Optimal solution found (tolerance 1.00e-04)
Best objective 7.057755278982e+00, best bound 7.057755278982e+00, gap 0.0000%
Optimize a model with 2535 rows, 1301 columns and 6920 nonzeros
Variable types: 651 continuous, 650 integer (650 binary)
Coefficient statistics:
  Matrix range     [1e-01, 1e+02]
  Objective range  [1e+00, 1e+00]
  Bounds range     [1e+00, 1e+00]
  RHS range        [1e-01, 1e+02]
Found heuristic solution: objective 1.1500000
Presolve removed 475 rows and 486 columns
Presolve time: 0.02s
Presolved: 2060 rows, 815 columns, 5991 nonzeros
Variable types: 314 continuous, 501 integer (501 binary)

Root relaxation: objective 1.242500e+00, 439 iterations, 0.00 seconds

    Nodes    |    Current Node    |     Objective Bounds      |     Work
 Expl Unexpl |  Obj  Depth IntInf | Incumbent    BestBd   Gap | It/Node Time

     0     0    1.24250    0    2    1.15000    1.24250  8.04%     -    0s
H    0     0                       1.2425000    1.24250  0.00%     -    0s

Explored 1 nodes (439 simplex iterations) in 0.03 seconds
Thread count was 8 (of 8 available processors)

Solution count 2: 1.2425 1.15 

Optimal solution found (tolerance 1.00e-04)
Best objective 1.242500000000e+00, best bound 1.242500000000e+00, gap 0.0000%
